131
0 13 37 23 108 29 94 67 113 58 
50 16 66 33 120 100 105 117 51 86 
44 24 55 10 83 57 92 47 80 18 
2 8 95 87 15 14 93 125 7 20 
72 43 62 12 114 6 89 128 77 52 
32 127 98 111 97 129 101 74 31 3 
59 65 122 46 124 121 41 26 73 126 
27 130 79 61 17 40 54 5 45 81 
76 112 11 99 104 69 25 68 49 118 
63 91 53 34 21 78 19 39 1 30 
90 56 38 96 119 35 9 64 116 36 
85 88 115 75 71 102 48 103 42 70 
123 109 107 4 110 28 84 60 106 22 
82 
